(declare-const a Real)
(declare-const b Real)
(declare-const c Real)
(assert (= (+ a b c) 3))
(assert (> a 0))
(assert (> b 0))
(assert (> c 0))
(assert (not (<= (+ (* -6 (pow (+ (pow a 2) (pow b 2) (* a b)) (/ 1 2))) (* (pow 3 (/ 1 2)) (+ 1 (pow (+ a b c) 2))) (* -6 (pow 2 (/ 1 2)) (pow (+ (pow a 2) (pow b 2) (* 2 (pow c 2)) (* a c) (* b c)) (pow 2 -1)))) 0)))
(check-sat)
(get-model)
(exit)